
Gurobi 12.0.1 (win64, gurobi_cl) logging started Fri Feb  7 11:20:47 2025

Set parameter Username
Set parameter LicenseID to value 2619153
Set parameter LogFile to value "gurobi.log"
Using license file C:\Users\maell\gurobi.lic
Academic license - for non-commercial use only - expires 2026-02-06

Gurobi 12.0.1 (win64, gurobi_cl) logging started Fri Feb  7 11:21:02 2025

Set parameter Username
Set parameter LicenseID to value 2619153
Set parameter LogFile to value "gurobi.log"
Using license file C:\Users\maell\gurobi.lic
Academic license - for non-commercial use only - expires 2026-02-06

Gurobi Optimizer version 12.0.1 build v12.0.1rc0 (win64 - Windows 11.0 (26100.2))
Copyright (c) 2025, Gurobi Optimization, LLC

Read LP format model from file fichier.lp
Reading time = 0.01 seconds
obj: 3 rows, 4 columns, 9 nonzeros

Using Gurobi shared library C:\gurobi1201\win64\bin\gurobi120.dll

CPU model: AMD Ryzen 7 7730U with Radeon Graphics, instruction set [SSE2|AVX|AVX2]
Thread count: 8 physical cores, 16 logical processors, using up to 16 threads

Optimize a model with 3 rows, 4 columns and 9 nonzeros
Model fingerprint: 0x538a4344
Variable types: 2 continuous, 2 integer (2 binary)
Coefficient statistics:
  Matrix range     [1e+00, 1e+01]
  Objective range  [1e+00, 3e+00]
  Bounds range     [1e+00, 4e+01]
  RHS range        [2e+01, 3e+01]
Found heuristic solution: objective 30.0000000
Presolve removed 3 rows and 4 columns
Presolve time: 0.02s
Presolve: All rows and columns removed

Explored 0 nodes (0 simplex iterations) in 0.03 seconds (0.00 work units)
Thread count was 1 (of 16 available processors)

Solution count 2: 50.5 30 

Optimal solution found (tolerance 1.00e-04)
Best objective 5.050000000000e+01, best bound 5.050000000000e+01, gap 0.0000%

Wrote result file 'affectation.sol'

